Route #1: 1 45 19 36 24 44 32 6 23 33
Route #2: 1 15 18 42 3 11 34
Route #3: 1 17 48 29 22 31 47 14 43 30
Route #4: 1 37 8 41 46 35 10 25 16 4
Route #5: 1 28 9 40 21 27 12 5
Route #6: 1 38 26 20 39 7
Route #7: 1 13 2
cost 1299
